proyfinal/src/viki/013/experimentInOfficeAgust.take6.output/775aa0d5-1989-489f-b8fc-3dd6fddd9c5f.als.dat
{'cnf.clauses': '118081',
 'cnf.totvars': '69608',
 'conflict literals': '2291',
 'conflicts': '254',
 'decisions': '10186',
 'memused.mb': '15.88',
 'outcome': 'UNSAT',
 'propagations': '328911',
 'restarts': '3',
 'solver.msecs': 55,
 'task.msecs': 133}
