proyfinal/src/viki/013/experimentInOfficeAgust.take6.output/775aa0d5-1989-489f-b8fc-3dd6fddd9c5f.als.out
Reading from standard input... Use '--help' for help.
============================[ Problem Statistics ]=============================
|                                                                             |
|  Number of variables:         69608                                         |
|  Number of clauses:          118081                                         |
|  Parse time:                   0.03 s                                       |
|                                                                             |
============================[ Search Statistics ]==============================
| Conflicts |          ORIGINAL         |          LEARNT          | Progress |
|           |    Vars  Clauses Literals |    Limit  Clauses Lit/Cl |          |
===============================================================================
|       100 |   57304    82327   203839 |    30186       96      8 | 17.676 % |
|       250 |   56785    81404   201697 |    33205      176      9 | 18.422 % |
===============================================================================
restarts              : 3
conflicts             : 254            (4561 /sec)
decisions             : 10186          (0.00 % random) (182925 /sec)
propagations          : 328911         (5906742 /sec)
conflict literals     : 2291           (32.83 % deleted)
Memory used           : 15.88 MB
CPU time              : 0.055684 s

UNSATISFIABLE
